param set_len = 32;
param target_sum = 8671335660;
param values := [1] 604032218 [2] 519932509 [3] 785969472 [4] 216337263 [5] 156451070 [6] 319816042 [7] 404373653 [8] 202806965 [9] 632985802 [10] 997959674 [11] 465937778 [12] 238460679 [13] 735244613 [14] 527252005 [15] 502148773 [16] 579839447 [17] 850418010 [18] 484993044 [19] 323051852 [20] 431860847 [21] 344599995 [22] 472872124 [23] 800616225 [24] 711738248 [25] 28283413 [26] 109347452 [27] 696891481 [28] 811646471 [29] 879032413 [30] 121037083 [31] 391511806 [32] 39505035 ;
